Traveling Salesman Problem/TSP_generados/Aleatorio1620390886_7.tsp
NAME: Aleatorio1620390886_7.tsp
COMMENT: Randomly generated scenario
TYPE: TSP
DIMENSION: 7
EDGE_WEIGHT_TYPE: ATT
NODE_COORD_SECTION
1 28.85 14.86
2 38.51 12.65
3 42.89 16.79
4 22.05 8.9
5 16.98 10.4
6 47.12 1.2
7 4.66 19.81
