Traveling Salesman Problem/TSP_generados/Aleatorio1620390886_7.opt.tour
NAME: Aleatorio1620390886_7.opt.tour
COMMENT: Optimal solution for Aleatorio1620390886_7 (103.79712971033989)
TYPE: TOUR
DIMENSION: 7
TOUR_SECTION
1 7 5 4 6 3 2
-1
EOF
